58504.0
1941
0 2 3 4 5 6 7 8 10 11 12 14 16 17 18 19 20 21 24 26 27 28 29 31 32 33 34 35 37 38 42 43 44 46 47 48 50 51 53 54 55 56 59 60 61 62 63 64 65 66 67 68 70 72 73 74 75 77 78 81 82 83 84 85 87 88 89 90 91 92 95 98 